(set-info :smt-lib-version 2.6)
(set-logic QF_S)
(set-info :source |
Generated by: Murphy Berzish, Mitja Kulczynski, Federico Mora, Florin Manea, Joel Day, Dirk Nowotka, Vijay Ganesh, Zhengyang Lu
Generated on: 2020-10-01
Description: Translated from a collection of real-world regex queries, AutomataArk, collected by Loris D’Antoni and Fang Wang: https://github.com/lorisdanto/automatark
Application: Evaluate solvers on real-world regex queries
Target solver: Z3str3RE, CVC4, OSTRICH, Z3seq, Z3str3, Z3-Trau
Publications: Berzish, M., Kulczynski, M., Mora, F., Manea, F., Day, J. D., Nowotka, D., & Ganesh, V. (2021, July). An SMT solver for regular expressions and linear arithmetic over string length. In CAV 2021.
|)
(set-info :license "https://creativecommons.org/licenses/by/4.0/")
(set-info :category "industrial")
(set-info :status sat)

(declare-const X String)
(assert (not (str.in_re X (str.to_re "Subject:HostYWRtaW46cGFzc3dvcmQ\u{a}"))))
(assert (not (str.in_re X (re.++ (str.to_re "SecureNet") (re.+ (re.union (str.to_re " ") (str.to_re "\u{9}") (str.to_re "\u{a}") (str.to_re "\u{c}") (str.to_re "\u{d}"))) (str.to_re "hostiedesksearch.dropspam.com\u{a}")))))
(assert (not (str.in_re X (re.++ (re.union (re.++ (str.to_re "1") (re.union (str.to_re "0") (str.to_re "1") (str.to_re "2"))) (re.range "1" "9") (re.++ (str.to_re "0") (re.range "1" "9"))) (re.union (str.to_re "-") (str.to_re " ") (str.to_re "/") (str.to_re ".")) (re.union (re.++ (re.union (str.to_re "1") (str.to_re "2")) (re.range "0" "9")) (re.++ (str.to_re "3") (re.union (str.to_re "0") (str.to_re "1"))) (re.range "1" "9") (re.++ (str.to_re "0") (re.range "1" "9"))) (re.union (str.to_re "-") (str.to_re " ") (str.to_re "/") (str.to_re ".")) (re.union (str.to_re "19") (str.to_re "20")) (re.range "0" "9") (re.range "0" "9") (str.to_re "\u{a}")))))
(assert (not (str.in_re X (re.++ (str.to_re "/") (re.union (str.to_re "Windows Phone") (str.to_re "iPhone") (str.to_re "BlackBerry") (str.to_re "Mobile") (str.to_re "Android") (str.to_re "Opera Mini") (str.to_re "Opera Mobile") (str.to_re "SymbianOS")) (str.to_re "/\u{a}")))))
(check-sat)

(exit)
